pseudo-Boolean proof version 3.0
@obj soli x12 x7 x9 ;
rup 1 ~x12 1 ~x7 1 ~x9 >= 1 ;
rup 1 ~x12 1 ~x7 >= 1 ;
rup 1 ~x12 >= 1 ;
rup 1 ~x11 1 ~x10 >= 1 ;
rup 1 ~x11 >= 1 ;
@obj soli x8 x5 x2 x1
rup 1 ~x8 1 ~x5 >= 1 ;
rup 1 ~x8 >= 1 ;
rup >= 0 ;
output NONE ;
conclusion BOUNDS 8 8 ;
end pseudo-Boolean proof ;
